benchmarks_CP/INST_49x49/50/inst49x49_50_15.dzn
S=7;
start=[|
-1,	-1,	16,	-1,	12,	11,	-1,	-1,	-1,	-1,	-1,	-1,	19,	-1,	15,	-1,	21,	30,	41,	-1,	49,	-1,	3,	46,	24,	33,	32,	7,	-1,	-1,	-1,	20,	26,	-1,	40,	1,	-1,	-1,	5,	8,	-1,	23,	27,	47,	-1,	-1,	-1,	36,	38|
44,	-1,	-1,	3,	33,	46,	-1,	30,	45,	41,	-1,	-1,	47,	18,	-1,	32,	1,	-1,	2,	-1,	40,	-1,	16,	31,	19,	13,	-1,	-1,	43,	-1,	-1,	-1,	-1,	-1,	6,	21,	17,	42,	49,	29,	-1,	-1,	28,	-1,	-1,	-1,	37,	-1,	14|
37,	-1,	-1,	6,	-1,	-1,	30,	17,	42,	48,	24,	31,	33,	-1,	23,	-1,	-1,	28,	16,	-1,	25,	1,	-1,	8,	-1,	14,	-1,	39,	-1,	22,	-1,	-1,	-1,	-1,	15,	-1,	3,	-1,	10,	46,	9,	2,	-1,	49,	20,	7,	-1,	35,	-1|
-1,	-1,	-1,	-1,	-1,	-1,	35,	4,	38,	26,	46,	-1,	9,	-1,	48,	43,	-1,	-1,	-1,	-1,	-1,	-1,	18,	28,	21,	-1,	-1,	-1,	10,	-1,	-1,	36,	25,	-1,	-1,	-1,	47,	-1,	-1,	30,	31,	39,	12,	-1,	-1,	-1,	2,	-1,	-1|
49,	-1,	-1,	-1,	-1,	-1,	-1,	-1,	-1,	-1,	-1,	-1,	13,	-1,	47,	3,	-1,	27,	-1,	-1,	36,	17,	-1,	30,	2,	29,	-1,	-1,	48,	-1,	-1,	-1,	39,	-1,	7,	-1,	20,	-1,	-1,	44,	-1,	-1,	46,	-1,	-1,	-1,	-1,	-1,	19|
1,	-1,	-1,	21,	-1,	-1,	47,	40,	-1,	22,	-1,	2,	-1,	20,	11,	-1,	-1,	-1,	-1,	-1,	-1,	34,	10,	-1,	23,	-1,	-1,	-1,	5,	-1,	31,	12,	37,	16,	-1,	-1,	14,	-1,	-1,	-1,	-1,	43,	3,	-1,	-1,	-1,	-1,	26,	-1|
19,	14,	36,	7,	-1,	-1,	-1,	12,	-1,	27,	-1,	-1,	11,	23,	-1,	37,	10,	-1,	-1,	8,	4,	-1,	-1,	26,	-1,	5,	47,	45,	30,	46,	-1,	1,	44,	-1,	-1,	18,	-1,	13,	38,	25,	16,	48,	6,	33,	39,	15,	21,	22,	-1|
24,	34,	14,	44,	-1,	-1,	20,	-1,	43,	-1,	19,	48,	-1,	-1,	3,	-1,	-1,	31,	-1,	-1,	6,	-1,	5,	25,	28,	38,	-1,	27,	-1,	-1,	45,	-1,	7,	23,	33,	-1,	39,	-1,	-1,	17,	-1,	26,	40,	-1,	-1,	-1,	-1,	-1,	-1|
-1,	4,	10,	-1,	-1,	7,	38,	3,	11,	-1,	-1,	-1,	-1,	8,	-1,	-1,	32,	-1,	-1,	48,	-1,	41,	-1,	-1,	-1,	-1,	-1,	-1,	-1,	-1,	-1,	29,	-1,	-1,	27,	45,	-1,	44,	-1,	24,	-1,	5,	39,	26,	37,	35,	22,	-1,	2|
32,	-1,	-1,	15,	31,	-1,	-1,	-1,	-1,	6,	5,	34,	45,	40,	-1,	46,	7,	16,	25,	12,	-1,	20,	-1,	42,	36,	44,	49,	4,	-1,	2,	-1,	9,	-1,	48,	-1,	-1,	22,	18,	11,	-1,	-1,	-1,	-1,	23,	3,	8,	-1,	-1,	-1|
-1,	-1,	-1,	-1,	-1,	-1,	-1,	27,	47,	-1,	-1,	-1,	35,	-1,	39,	-1,	-1,	-1,	-1,	20,	37,	-1,	34,	12,	45,	-1,	-1,	-1,	-1,	-1,	8,	-1,	41,	-1,	-1,	-1,	10,	36,	48,	-1,	-1,	-1,	-1,	1,	-1,	-1,	15,	7,	-1|
-1,	-1,	-1,	-1,	48,	1,	9,	-1,	-1,	16,	-1,	17,	-1,	-1,	18,	10,	-1,	-1,	49,	-1,	21,	32,	-1,	7,	22,	-1,	33,	35,	-1,	31,	37,	-1,	20,	-1,	-1,	19,	-1,	43,	28,	-1,	23,	25,	4,	6,	-1,	34,	-1,	45,	-1|
47,	30,	-1,	29,	49,	-1,	-1,	7,	-1,	18,	-1,	-1,	-1,	10,	45,	-1,	-1,	-1,	1,	28,	-1,	-1,	-1,	48,	37,	39,	15,	-1,	-1,	-1,	-1,	26,	35,	-1,	17,	33,	-1,	31,	-1,	-1,	-1,	6,	-1,	-1,	-1,	-1,	46,	24,	-1|
33,	-1,	-1,	-1,	-1,	-1,	43,	15,	29,	-1,	20,	30,	-1,	38,	-1,	41,	26,	19,	-1,	40,	-1,	3,	11,	2,	-1,	-1,	10,	23,	14,	-1,	25,	-1,	-1,	-1,	-1,	7,	49,	34,	-1,	-1,	35,	-1,	9,	36,	47,	48,	44,	21,	31|
20,	10,	-1,	-1,	-1,	-1,	18,	-1,	-1,	-1,	-1,	6,	-1,	-1,	36,	24,	-1,	39,	-1,	-1,	-1,	5,	-1,	-1,	40,	21,	16,	-1,	-1,	-1,	41,	-1,	-1,	-1,	-1,	-1,	-1,	38,	-1,	1,	19,	-1,	-1,	-1,	-1,	-1,	-1,	-1,	26|
29,	-1,	-1,	-1,	44,	-1,	14,	16,	23,	25,	36,	-1,	5,	-1,	33,	-1,	4,	10,	-1,	-1,	38,	26,	20,	-1,	-1,	31,	7,	-1,	-1,	-1,	39,	46,	12,	-1,	37,	43,	9,	2,	-1,	-1,	32,	21,	-1,	-1,	11,	42,	-1,	47,	-1|
-1,	24,	37,	-1,	21,	38,	15,	-1,	19,	-1,	3,	-1,	41,	47,	49,	22,	42,	-1,	-1,	-1,	12,	-1,	-1,	-1,	29,	-1,	23,	2,	-1,	-1,	10,	25,	-1,	-1,	-1,	-1,	-1,	17,	35,	14,	-1,	34,	20,	16,	45,	-1,	27,	39,	36|
7,	16,	-1,	-1,	43,	19,	-1,	46,	-1,	28,	10,	33,	-1,	2,	21,	-1,	-1,	15,	-1,	-1,	-1,	4,	-1,	-1,	38,	-1,	-1,	-1,	34,	13,	26,	23,	27,	-1,	-1,	8,	-1,	39,	-1,	-1,	-1,	37,	-1,	14,	30,	-1,	5,	-1,	18|
-1,	-1,	-1,	27,	35,	25,	46,	38,	-1,	14,	-1,	-1,	40,	-1,	41,	-1,	-1,	26,	-1,	-1,	32,	-1,	19,	10,	34,	-1,	-1,	-1,	-1,	16,	42,	18,	-1,	44,	-1,	47,	-1,	-1,	-1,	15,	13,	4,	21,	-1,	31,	-1,	3,	29,	-1|
4,	3,	-1,	-1,	13,	5,	11,	-1,	-1,	-1,	21,	-1,	-1,	39,	-1,	40,	-1,	-1,	14,	-1,	-1,	35,	-1,	-1,	32,	-1,	18,	44,	-1,	38,	30,	-1,	-1,	-1,	-1,	29,	28,	45,	-1,	10,	-1,	46,	-1,	2,	-1,	-1,	-1,	-1,	7|
-1,	-1,	47,	49,	39,	28,	-1,	-1,	18,	-1,	-1,	-1,	24,	15,	-1,	31,	-1,	29,	37,	19,	2,	22,	27,	41,	42,	-1,	36,	-1,	3,	9,	5,	-1,	32,	-1,	14,	44,	-1,	-1,	-1,	-1,	30,	-1,	-1,	-1,	-1,	-1,	33,	4,	-1|
-1,	-1,	-1,	-1,	19,	3,	-1,	23,	20,	47,	22,	-1,	-1,	-1,	8,	-1,	-1,	-1,	26,	-1,	33,	24,	-1,	6,	27,	46,	31,	42,	17,	10,	-1,	13,	36,	-1,	-1,	37,	-1,	21,	7,	28,	18,	1,	-1,	32,	-1,	49,	41,	-1,	9|
22,	12,	48,	-1,	30,	-1,	-1,	28,	-1,	9,	-1,	10,	18,	45,	31,	38,	-1,	36,	40,	37,	41,	-1,	23,	3,	-1,	-1,	1,	-1,	-1,	-1,	-1,	27,	21,	-1,	-1,	-1,	2,	-1,	32,	42,	20,	-1,	-1,	-1,	-1,	44,	-1,	14,	-1|
-1,	-1,	-1,	-1,	-1,	-1,	45,	5,	2,	11,	43,	8,	27,	6,	-1,	-1,	-1,	-1,	18,	-1,	-1,	-1,	38,	-1,	20,	-1,	-1,	-1,	-1,	-1,	-1,	-1,	33,	-1,	9,	-1,	31,	47,	3,	34,	-1,	-1,	35,	30,	-1,	21,	16,	-1,	1|
39,	8,	-1,	-1,	-1,	-1,	17,	-1,	14,	-1,	-1,	-1,	31,	37,	43,	5,	20,	13,	19,	-1,	46,	30,	-1,	35,	49,	-1,	-1,	-1,	7,	-1,	38,	-1,	40,	47,	48,	16,	26,	9,	23,	-1,	4,	-1,	18,	11,	33,	-1,	45,	-1,	-1|
-1,	18,	-1,	1,	-1,	41,	-1,	44,	40,	3,	4,	19,	12,	-1,	7,	-1,	-1,	-1,	10,	-1,	-1,	8,	-1,	-1,	26,	17,	-1,	37,	23,	-1,	-1,	28,	-1,	-1,	-1,	14,	-1,	48,	-1,	-1,	38,	-1,	-1,	46,	-1,	47,	31,	-1,	5|
25,	-1,	-1,	20,	47,	21,	-1,	26,	-1,	1,	17,	15,	-1,	48,	14,	-1,	-1,	-1,	-1,	-1,	-1,	-1,	-1,	22,	-1,	-1,	41,	10,	18,	-1,	-1,	-1,	-1,	6,	-1,	46,	-1,	-1,	-1,	-1,	-1,	35,	-1,	37,	-1,	-1,	-1,	-1,	-1|
-1,	35,	23,	-1,	27,	31,	32,	29,	46,	21,	33,	-1,	-1,	49,	-1,	16,	9,	1,	47,	39,	44,	-1,	48,	-1,	-1,	-1,	-1,	12,	41,	3,	-1,	4,	-1,	-1,	20,	-1,	-1,	5,	-1,	36,	17,	-1,	-1,	-1,	-1,	-1,	-1,	25,	-1|
-1,	33,	-1,	18,	-1,	-1,	21,	37,	31,	-1,	39,	-1,	-1,	-1,	19,	-1,	-1,	34,	-1,	-1,	43,	-1,	-1,	17,	6,	47,	-1,	-1,	-1,	-1,	20,	24,	30,	-1,	44,	41,	38,	-1,	26,	48,	40,	15,	29,	-1,	49,	25,	-1,	46,	22|
-1,	-1,	25,	19,	-1,	-1,	-1,	8,	15,	33,	23,	13,	28,	-1,	27,	-1,	31,	20,	-1,	6,	-1,	9,	-1,	18,	5,	-1,	40,	30,	49,	43,	-1,	-1,	46,	-1,	-1,	39,	-1,	14,	-1,	4,	1,	36,	-1,	3,	35,	-1,	-1,	-1,	21|
-1,	37,	-1,	8,	-1,	40,	28,	48,	30,	17,	9,	-1,	44,	-1,	38,	36,	18,	-1,	7,	29,	35,	-1,	4,	45,	16,	-1,	19,	-1,	6,	32,	-1,	-1,	2,	-1,	-1,	-1,	-1,	11,	21,	27,	-1,	31,	-1,	-1,	10,	20,	42,	-1,	39|
-1,	17,	-1,	-1,	-1,	-1,	29,	-1,	27,	-1,	-1,	-1,	-1,	-1,	12,	-1,	14,	49,	13,	-1,	-1,	33,	-1,	-1,	-1,	-1,	-1,	15,	-1,	-1,	40,	21,	-1,	25,	-1,	23,	7,	-1,	30,	-1,	3,	-1,	-1,	-1,	36,	-1,	11,	-1,	-1|
-1,	-1,	-1,	30,	11,	27,	-1,	-1,	-1,	-1,	47,	40,	-1,	3,	2,	-1,	17,	45,	-1,	41,	-1,	-1,	39,	-1,	-1,	-1,	22,	21,	26,	-1,	-1,	-1,	1,	14,	18,	-1,	6,	32,	-1,	9,	34,	-1,	24,	13,	8,	37,	-1,	33,	-1|
3,	5,	-1,	41,	26,	-1,	1,	18,	22,	20,	-1,	12,	-1,	-1,	40,	-1,	-1,	21,	46,	-1,	-1,	-1,	42,	-1,	8,	-1,	-1,	32,	47,	39,	4,	16,	11,	36,	23,	13,	-1,	29,	37,	2,	-1,	28,	-1,	27,	-1,	31,	-1,	-1,	-1|
34,	-1,	24,	-1,	4,	12,	-1,	-1,	1,	7,	45,	-1,	-1,	43,	-1,	8,	30,	-1,	39,	-1,	11,	25,	-1,	38,	13,	-1,	27,	26,	-1,	33,	15,	48,	9,	31,	-1,	-1,	-1,	20,	46,	-1,	-1,	22,	32,	18,	28,	40,	6,	44,	23|
-1,	-1,	40,	-1,	-1,	49,	-1,	-1,	33,	35,	27,	11,	10,	21,	25,	-1,	-1,	18,	-1,	43,	34,	-1,	47,	-1,	-1,	-1,	-1,	-1,	-1,	15,	-1,	-1,	-1,	-1,	-1,	42,	8,	4,	-1,	-1,	-1,	-1,	-1,	-1,	46,	-1,	23,	-1,	28|
38,	-1,	-1,	-1,	-1,	-1,	24,	45,	-1,	40,	48,	-1,	-1,	14,	46,	-1,	-1,	-1,	-1,	44,	-1,	-1,	-1,	-1,	25,	-1,	29,	-1,	-1,	26,	22,	49,	42,	7,	-1,	-1,	-1,	30,	33,	39,	-1,	47,	-1,	-1,	-1,	-1,	1,	-1,	-1|
-1,	-1,	33,	-1,	16,	4,	39,	43,	7,	-1,	-1,	-1,	1,	32,	-1,	-1,	-1,	-1,	38,	36,	10,	14,	-1,	-1,	-1,	42,	8,	-1,	-1,	41,	-1,	17,	-1,	11,	-1,	34,	-1,	-1,	-1,	-1,	46,	-1,	5,	-1,	22,	-1,	-1,	6,	37|
30,	-1,	19,	-1,	25,	44,	-1,	-1,	-1,	-1,	-1,	42,	34,	28,	-1,	-1,	13,	-1,	-1,	32,	39,	7,	-1,	43,	-1,	-1,	17,	20,	-1,	5,	-1,	10,	-1,	-1,	46,	48,	41,	-1,	-1,	-1,	-1,	-1,	-1,	21,	-1,	-1,	-1,	16,	27|
-1,	-1,	-1,	34,	-1,	-1,	-1,	9,	12,	-1,	-1,	46,	-1,	30,	29,	-1,	19,	-1,	6,	-1,	31,	-1,	40,	-1,	10,	22,	-1,	41,	36,	20,	28,	-1,	-1,	-1,	-1,	5,	1,	24,	-1,	16,	37,	-1,	33,	-1,	-1,	-1,	13,	38,	35|
9,	-1,	-1,	-1,	-1,	6,	42,	-1,	-1,	31,	15,	5,	4,	19,	22,	-1,	49,	-1,	-1,	-1,	45,	2,	37,	-1,	35,	18,	-1,	34,	32,	40,	16,	33,	-1,	-1,	-1,	-1,	-1,	-1,	-1,	21,	28,	44,	-1,	48,	-1,	12,	47,	-1,	-1|
-1,	1,	-1,	-1,	-1,	32,	-1,	47,	-1,	-1,	-1,	-1,	-1,	-1,	-1,	11,	40,	42,	-1,	-1,	-1,	-1,	28,	5,	-1,	27,	-1,	-1,	45,	21,	-1,	-1,	23,	30,	-1,	6,	-1,	19,	31,	7,	-1,	-1,	17,	25,	9,	-1,	8,	18,	10|
21,	-1,	38,	39,	-1,	-1,	7,	22,	10,	-1,	-1,	-1,	-1,	13,	37,	35,	-1,	-1,	-1,	25,	-1,	-1,	30,	34,	3,	4,	-1,	18,	-1,	11,	-1,	40,	-1,	24,	-1,	31,	42,	-1,	29,	-1,	6,	9,	45,	17,	-1,	28,	-1,	-1,	33|
-1,	-1,	31,	2,	6,	-1,	44,	1,	-1,	-1,	16,	7,	-1,	12,	-1,	23,	-1,	43,	-1,	10,	-1,	36,	35,	-1,	-1,	-1,	-1,	33,	38,	37,	13,	-1,	18,	20,	26,	49,	-1,	46,	-1,	-1,	15,	-1,	22,	40,	42,	-1,	9,	8,	30|
42,	-1,	30,	-1,	-1,	9,	-1,	14,	39,	-1,	-1,	25,	-1,	33,	-1,	45,	-1,	-1,	-1,	-1,	-1,	-1,	17,	-1,	-1,	-1,	-1,	-1,	19,	7,	29,	3,	-1,	2,	-1,	-1,	37,	-1,	-1,	43,	-1,	-1,	-1,	35,	13,	-1,	-1,	1,	46|
-1,	43,	-1,	-1,	34,	-1,	-1,	-1,	41,	46,	40,	32,	26,	35,	9,	-1,	29,	48,	-1,	4,	-1,	-1,	13,	-1,	-1,	-1,	-1,	11,	-1,	-1,	23,	-1,	-1,	-1,	-1,	36,	44,	-1,	2,	45,	-1,	30,	-1,	39,	-1,	38,	-1,	-1,	20|
-1,	-1,	-1,	23,	-1,	-1,	33,	2,	9,	29,	28,	-1,	-1,	27,	42,	13,	39,	-1,	-1,	-1,	-1,	10,	43,	-1,	7,	-1,	5,	-1,	31,	-1,	46,	-1,	4,	41,	47,	-1,	-1,	-1,	-1,	-1,	-1,	17,	37,	19,	14,	18,	-1,	34,	44|
10,	-1,	-1,	-1,	-1,	-1,	-1,	-1,	-1,	38,	30,	18,	-1,	-1,	44,	-1,	28,	40,	-1,	7,	-1,	-1,	-1,	-1,	14,	2,	-1,	31,	-1,	42,	-1,	39,	5,	-1,	12,	35,	-1,	-1,	4,	-1,	-1,	19,	26,	24,	-1,	3,	-1,	49,	41|
35,	-1,	8,	-1,	3,	18,	-1,	-1,	24,	-1,	-1,	36,	49,	-1,	5,	-1,	-1,	41,	-1,	-1,	27,	23,	22,	29,	46,	-1,	42,	-1,	-1,	30,	-1,	-1,	-1,	-1,	-1,	-1,	-1,	7,	-1,	-1,	-1,	38,	47,	-1,	21,	-1,	-1,	-1,	6|];
