benchmarks_LEQ/INST_49x49/50/inst49x49_50_15.txt
7
1
-1	13	-1	-1	-1	-1	-1	-1	-1	-1	-1	44	-1	29	-1	-1	-1	30	41	-1	49	42	3	-1	-1	-1	-1	-1	-1	-1	-1	20	-1	28	40	-1	34	-1	5	8	-1	-1	27	-1	-1	9	-1	36	-1
-1	-1	-1	-1	-1	-1	25	30	45	-1	35	-1	47	18	-1	-1	-1	22	2	-1	40	15	16	-1	-1	-1	-1	-1	-1	24	-1	11	-1	38	6	21	-1	-1	49	-1	-1	-1	28	-1	4	23	-1	-1	-1
-1	32	26	-1	-1	43	30	-1	42	48	-1	31	-1	34	23	-1	12	-1	-1	18	25	-1	-1	8	44	-1	-1	39	-1	-1	21	47	-1	-1	15	-1	-1	-1	10	46	-1	2	11	49	20	7	40	35	-1
40	15	-1	-1	41	-1	35	-1	38	-1	46	-1	-1	1	48	-1	33	-1	-1	-1	-1	-1	18	28	21	37	20	49	10	-1	-1	36	-1	3	-1	27	-1	6	45	-1	-1	-1	-1	-1	44	17	2	-1	32
49	9	-1	38	-1	-1	-1	-1	-1	15	-1	-1	13	-1	47	3	35	-1	-1	-1	36	-1	-1	30	-1	29	-1	-1	48	-1	-1	-1	-1	-1	7	-1	-1	-1	40	44	12	11	-1	31	-1	1	34	-1	-1
1	-1	18	-1	8	-1	-1	-1	-1	-1	-1	2	36	20	11	-1	-1	38	-1	46	-1	34	10	-1	-1	35	-1	9	-1	45	-1	12	37	16	-1	32	14	28	15	19	-1	43	-1	41	48	30	29	-1	13
19	14	-1	-1	-1	-1	31	12	-1	27	49	-1	11	-1	20	37	10	-1	-1	8	4	40	-1	26	43	-1	47	45	30	46	2	-1	-1	-1	42	18	35	13	-1	-1	-1	48	-1	33	-1	15	-1	22	24
24	-1	-1	-1	36	-1	20	-1	43	-1	-1	48	-1	9	3	4	-1	-1	-1	15	6	-1	5	25	-1	38	46	27	-1	47	45	-1	7	23	-1	30	-1	1	13	17	21	26	40	-1	32	41	18	-1	12
46	-1	10	40	28	-1	-1	3	-1	-1	-1	-1	23	-1	-1	-1	-1	-1	-1	-1	-1	41	31	-1	-1	-1	-1	-1	21	-1	-1	29	43	13	-1	45	15	-1	-1	24	42	5	-1	26	37	-1	-1	19	-1
-1	39	-1	15	-1	-1	37	33	26	-1	-1	-1	-1	40	30	46	7	-1	25	-1	29	20	-1	42	36	44	-1	-1	-1	2	-1	9	-1	-1	10	-1	22	18	-1	-1	-1	-1	13	-1	3	-1	-1	-1	-1
-1	-1	17	25	23	-1	-1	27	47	4	31	-1	-1	42	39	-1	22	-1	43	-1	-1	-1	34	12	45	-1	13	-1	-1	44	8	30	41	46	5	-1	-1	-1	-1	32	-1	3	-1	1	38	33	-1	-1	49
5	2	-1	11	48	-1	9	-1	13	-1	41	17	14	36	-1	10	8	-1	-1	-1	21	-1	24	-1	22	-1	-1	-1	15	31	-1	38	20	-1	3	-1	-1	-1	28	-1	-1	-1	-1	6	-1	34	-1	45	29
47	30	-1	-1	-1	13	-1	-1	-1	18	-1	21	-1	10	45	27	-1	11	-1	-1	-1	43	14	-1	-1	-1	-1	8	12	-1	-1	-1	-1	-1	17	-1	-1	-1	9	40	41	6	-1	-1	5	-1	46	-1	-1
33	-1	27	12	-1	22	-1	-1	29	-1	-1	-1	-1	38	13	41	26	19	-1	40	5	3	11	2	-1	-1	10	23	-1	18	-1	32	28	4	-1	-1	-1	-1	16	37	-1	8	-1	-1	-1	48	-1	21	31
20	-1	12	9	-1	30	18	13	44	-1	29	-1	-1	4	36	-1	43	39	-1	-1	7	-1	-1	15	40	21	16	14	2	-1	-1	31	47	-1	-1	3	23	38	-1	-1	-1	-1	8	28	25	-1	-1	17	26
-1	-1	6	48	44	-1	14	16	23	-1	-1	27	-1	22	-1	18	4	10	30	3	38	-1	-1	-1	1	-1	7	13	-1	8	-1	-1	-1	-1	-1	43	9	2	-1	-1	-1	21	19	-1	-1	-1	35	-1	-1
31	24	-1	33	21	38	-1	-1	19	-1	-1	9	-1	-1	49	22	-1	-1	44	-1	-1	28	8	-1	29	48	23	-1	40	4	-1	25	-1	43	-1	26	-1	17	-1	14	-1	34	-1	-1	45	-1	27	-1	36
7	16	-1	-1	43	-1	41	-1	35	28	10	-1	-1	2	21	-1	45	15	48	1	20	-1	12	-1	-1	6	3	-1	34	13	-1	-1	27	-1	-1	8	40	39	24	-1	-1	37	-1	-1	-1	-1	-1	9	18
-1	45	2	27	35	25	-1	38	-1	14	-1	20	-1	7	-1	-1	-1	-1	23	-1	32	37	19	-1	34	30	-1	43	-1	16	-1	18	-1	44	24	-1	5	22	-1	15	-1	4	-1	-1	-1	-1	3	-1	-1
-1	-1	-1	36	-1	-1	11	31	-1	-1	21	26	42	-1	16	-1	6	-1	-1	-1	8	-1	-1	9	-1	-1	-1	44	20	-1	-1	-1	22	49	19	29	28	-1	12	10	27	-1	23	-1	41	-1	-1	-1	-1
26	-1	-1	-1	39	-1	-1	-1	-1	8	-1	-1	24	-1	-1	31	46	-1	-1	-1	-1	-1	-1	41	42	45	36	-1	3	9	-1	7	-1	-1	14	44	48	25	-1	-1	30	16	-1	-1	-1	-1	-1	-1	-1
-1	44	4	43	19	3	40	-1	20	47	22	-1	-1	16	-1	-1	15	12	26	-1	-1	-1	-1	-1	-1	46	-1	-1	-1	-1	14	13	-1	-1	-1	37	25	-1	-1	-1	-1	1	-1	32	34	49	-1	48	9
22	-1	-1	-1	-1	33	6	28	34	-1	13	10	18	45	31	-1	-1	-1	-1	-1	-1	19	-1	3	47	-1	-1	-1	8	35	43	27	21	26	16	-1	-1	-1	-1	42	-1	-1	-1	-1	17	44	-1	-1	-1
-1	-1	-1	-1	-1	-1	-1	5	-1	11	43	8	27	-1	-1	49	48	4	-1	-1	-1	39	-1	-1	-1	28	-1	-1	46	-1	-1	37	33	12	-1	15	-1	47	3	34	44	-1	-1	30	23	21	-1	-1	-1
39	8	-1	-1	-1	-1	17	25	14	-1	42	-1	-1	37	-1	5	-1	-1	-1	21	-1	30	15	35	49	36	44	-1	-1	1	-1	-1	40	47	-1	-1	26	-1	23	-1	4	12	18	11	-1	10	-1	-1	-1
13	18	9	1	15	-1	16	-1	40	3	4	-1	-1	-1	-1	34	-1	-1	-1	45	42	-1	-1	-1	26	-1	-1	-1	23	25	-1	-1	49	-1	2	-1	30	-1	-1	-1	-1	-1	36	-1	6	-1	31	20	5
-1	-1	-1	20	-1	21	49	-1	36	-1	-1	15	7	48	14	-1	23	32	28	11	3	45	9	-1	4	16	41	-1	18	-1	34	-1	-1	-1	30	-1	27	-1	8	-1	39	-1	43	-1	24	19	-1	-1	-1
-1	35	23	37	-1	-1	32	-1	46	-1	33	38	30	49	6	16	-1	1	-1	-1	44	-1	48	13	-1	34	-1	-1	41	3	24	-1	15	42	20	40	-1	5	-1	36	-1	-1	2	22	-1	26	28	25	8
45	33	-1	18	-1	-1	-1	-1	-1	2	39	-1	16	-1	-1	42	-1	-1	3	23	-1	12	1	17	6	-1	35	28	13	27	-1	-1	-1	-1	-1	41	38	-1	-1	48	-1	-1	-1	-1	49	25	-1	-1	-1
16	-1	25	-1	38	-1	10	8	-1	-1	-1	13	-1	41	-1	47	31	20	32	-1	48	9	7	-1	5	11	-1	-1	-1	43	-1	-1	46	-1	29	-1	-1	14	-1	4	-1	36	-1	3	35	-1	26	12	-1
-1	37	-1	-1	-1	40	-1	48	-1	-1	9	-1	44	26	-1	36	-1	-1	-1	-1	-1	-1	4	45	-1	23	-1	24	6	32	3	5	-1	-1	-1	-1	-1	11	-1	-1	47	31	-1	-1	10	20	-1	41	39
-1	17	39	-1	-1	20	29	-1	-1	-1	34	-1	32	-1	12	-1	14	49	13	22	-1	33	44	37	-1	-1	2	15	-1	-1	-1	21	8	25	38	23	7	-1	-1	18	-1	42	-1	45	-1	-1	11	5	47
-1	46	44	30	-1	-1	23	35	5	42	47	-1	-1	-1	2	-1	-1	-1	4	-1	-1	-1	39	36	-1	-1	22	-1	-1	-1	7	-1	-1	-1	18	-1	-1	32	25	-1	34	49	-1	-1	8	-1	-1	-1	-1
-1	-1	-1	-1	-1	48	1	18	22	20	6	12	-1	25	-1	-1	-1	-1	46	-1	-1	49	42	14	8	-1	-1	32	-1	39	-1	-1	11	-1	23	-1	-1	-1	-1	2	45	-1	-1	27	-1	-1	19	-1	17
-1	49	24	47	4	-1	-1	36	1	-1	45	14	21	43	10	8	-1	-1	39	-1	11	25	29	-1	13	3	-1	26	-1	-1	15	-1	9	31	-1	-1	19	20	46	-1	-1	22	-1	18	-1	40	-1	-1	23
17	31	-1	5	-1	49	-1	-1	-1	35	27	11	-1	21	-1	48	-1	-1	9	43	-1	-1	47	-1	30	32	45	-1	39	15	-1	-1	3	19	13	-1	8	4	-1	-1	26	-1	41	7	46	-1	-1	-1	-1
-1	-1	21	-1	-1	2	-1	45	37	40	48	23	8	-1	-1	20	41	-1	5	-1	16	-1	-1	-1	25	-1	29	-1	27	26	22	49	-1	7	35	9	-1	30	33	-1	-1	-1	-1	-1	19	36	1	32	-1
-1	26	33	-1	-1	-1	-1	-1	-1	13	18	-1	-1	-1	-1	30	47	2	38	36	-1	-1	49	-1	9	42	8	-1	-1	-1	-1	-1	-1	-1	31	34	12	15	27	3	-1	40	5	-1	-1	45	20	6	37
-1	11	-1	-1	-1	44	-1	6	-1	36	-1	-1	34	28	1	12	13	14	-1	32	-1	7	26	-1	31	-1	-1	-1	-1	5	47	-1	29	-1	46	48	41	-1	-1	23	2	-1	49	21	-1	-1	-1	-1	-1
-1	-1	-1	34	7	15	27	-1	12	49	2	46	25	30	-1	21	19	3	6	-1	31	-1	40	-1	10	22	11	-1	36	20	-1	-1	-1	-1	4	-1	-1	-1	17	16	-1	-1	33	-1	43	-1	-1	38	-1
-1	36	-1	-1	-1	6	-1	41	17	-1	15	-1	-1	-1	22	-1	49	23	8	27	45	-1	-1	-1	-1	18	-1	34	-1	40	-1	-1	-1	-1	-1	-1	-1	10	14	-1	-1	44	30	-1	-1	12	47	3	-1
-1	1	43	-1	37	32	-1	47	-1	-1	-1	-1	-1	44	4	11	40	-1	24	35	15	38	28	-1	33	27	48	-1	-1	-1	12	-1	-1	-1	34	-1	36	19	-1	-1	-1	13	17	-1	-1	29	-1	18	10
21	20	38	-1	1	-1	-1	-1	-1	5	-1	-1	-1	-1	37	-1	16	46	-1	25	-1	27	30	34	-1	4	-1	18	44	11	49	-1	-1	-1	-1	-1	42	-1	29	-1	6	9	-1	-1	2	28	36	-1	33
-1	-1	31	-1	6	45	44	-1	-1	-1	16	7	-1	12	-1	23	-1	43	11	-1	17	-1	35	-1	39	-1	-1	33	-1	37	13	-1	18	-1	26	-1	-1	-1	47	5	-1	14	22	40	-1	-1	9	-1	-1
42	41	-1	-1	-1	9	-1	-1	39	-1	-1	-1	15	33	-1	45	36	8	-1	-1	26	47	-1	-1	-1	-1	-1	6	19	-1	29	-1	-1	2	-1	-1	37	-1	34	43	24	18	-1	-1	-1	5	48	1	46
27	43	49	17	-1	-1	5	-1	-1	-1	40	32	26	-1	9	-1	-1	-1	22	-1	-1	-1	-1	-1	15	-1	37	-1	1	-1	-1	14	-1	8	28	36	44	3	-1	45	-1	30	25	-1	-1	-1	-1	31	-1
12	48	15	23	-1	26	33	2	-1	29	-1	-1	3	-1	42	13	39	-1	21	49	30	-1	43	20	-1	-1	5	38	31	36	-1	-1	4	-1	-1	-1	16	40	1	11	25	-1	37	19	14	-1	32	-1	-1
-1	-1	-1	-1	46	-1	36	-1	21	-1	-1	18	-1	17	-1	-1	-1	40	20	-1	47	-1	45	16	-1	2	-1	31	-1	-1	27	-1	5	15	12	-1	13	-1	-1	33	-1	19	26	-1	-1	3	-1	-1	-1
-1	19	-1	-1	-1	-1	13	-1	-1	-1	37	36	-1	31	-1	14	34	41	12	-1	-1	23	-1	-1	46	40	42	1	9	-1	33	-1	-1	-1	25	28	-1	-1	-1	-1	48	-1	-1	4	21	-1	10	-1	6
49 
1 36 41 34
11 36 20 44
17 11 39 9
12 43 34 31
23 28 10 11
36 32 35 47
29 3 25 29
39 7 4 35
7 18 29 44
48 1 26 19
17 24 41 49
46 45 27 47
3 33 45 45
26 36 1 11
11 47 31 1
49 4 31 25
49 34 16 6
11 1 9 25
8 11 41 14
9 39 13 44
38 24 10 23
24 21 39 4
1 42 40 24
41 27 37 7
42 44 9 11
27 8 32 16
35 27 22 25
34 42 33 21
38 12 22 16
20 31 42 34
43 36 41 10
45 15 20 25
5 34 3 13
37 44 4 6
38 4 31 21
7 3 16 11
40 41 16 35
48 10 37 1
43 4 8 37
33 12 39 45
15 31 19 15
48 30 5 20
34 37 38 8
45 24 49 10
1 4 43 43
16 32 31 22
1 44 12 20
35 32 48 22
9 30 14 37
